Optimal - objective value 4.00000000
      8 x_0_8                      1         0.113146551724138
     23 x_1_8                      1         -0.21551724137931
     38 x_2_8                      1         -0.223060344827586
     53 x_3_8                      1                       0
     68 x_4_8                      1                       0
     75 x_5_0                      1         -0.146551724137931
     90 x_6_0                      1         -0.102370689655172
    111 x_7_6                      1                       0
    126 x_8_6                      1                       0
    146 x_9_11                     1                       0
    161 x_10_11                    1         -0.224137931034483
    176 x_11_11                    1                       0
    191 x_12_11                    1         -0.275862068965517
    201 x_13_6                     1                       0
    216 x_14_6                     1                       0
    225 y_0                        1         0.886853448275862
    231 y_6                        1         0.266163793103448
    233 y_8                        1         0.524784482758621
    236 y_11                       1         0.637931034482759
